 vasp.6.3.2 27Jun22 (build Nov 14 2022 18:12:39) complex

 executed on                 Saga date 2023.01.31  13:56:28

 INCAR:
   ENCUT = 400.000000
   SIGMA = 0.020000
   EDIFFG = -5.00e-02
   GGA = PE
   PREC = Accurate
   IBRION = 1
   ISMEAR = 0
   ISPIN = 2
   ISTART = 0
   ISYM = -1
   NELM = 120
   NSW = 40
   NCORE = 20
   LCHARG = .FALSE.
   LWAVE = .FALSE.

 POTCAR:    PAW_PBE Ni 02Aug2007
 POTCAR:    PAW_PBE H 15Jun2001
|           W    W    AA    RRRRR   N    N  II  N    N   GGGG   !!!           |
|           W    W   A  A   R    R  NN   N  II  NN   N  G    G  !!!           |
|           W    W  A    A  R    R  N N  N  II  N N  N  G       !!!           |
|           W WW W  AAAAAA  RRRRR   N  N N  II  N  N N  G  GGG   !            |
|           WW  WW  A    A  R   R   N   NN  II  N   NN  G    G                |
|           W    W  A    A  R    R  N    N  II  N    N   GGGG   !!!           |
|     You use a magnetic or noncollinear calculation, but did not specify     |
|     the initial magnetic moment with the MAGMOM tag. Note that a            |
|     default of 1 will be used for all atoms. This ferromagnetic setup       |
|     may break the symmetry of the crystal, in particular it may rule        |
|     out finding an antiferromagnetic solution. Thence, we recommend         |
|     setting the initial magnetic moment manually or verifying carefully     |
|     that this magnetic setup is desired.                                    |

 POTCAR:    PAW_PBE Ni 02Aug2007
   VRHFIN =Ni:

   TITEL  = PAW_PBE Ni 02Aug2007
   POMASS =   58.690; ZVAL   =   10.000    mass and valenz
   ENMAX  =  269.532; ENMIN  =  202.149 eV

 POTCAR:    PAW_PBE H 15Jun2001
   VRHFIN =H: ultrasoft test

   TITEL  = PAW_PBE H 15Jun2001
   POMASS =    1.000; ZVAL   =    1.000    mass and valenz
   ENMAX  =  250.000; ENMIN  =  200.000 eV

  PAW_PBE Ni 02Aug2007                  :
  PAW_PBE H 15Jun2001                   :

 POSCAR: Ni  H
  positions in cartesian coordinates
 exchange correlation table for  LEXCH =        8
   RHO(1)=    0.500       N(1)  =     2000
   RHO(2)=  100.500       N(2)  =     4000

 VTST: version 4.2, (08/11/21)

 CHAIN: initializing optimizer

 OPT: Using VASP QUASI-newton optimizer
 CHAIN: Read ICHAIN            0

 POSCAR: Ni  H
  positions in cartesian coordinates

 ion  position               nearest neighbor table
   1  0.242  0.466  0.394-   8 2.33   9 2.33  21 2.38  22 2.38  30 2.72
   2  0.477  0.470  0.677-  27 2.31   5 2.38  25 2.41  24 2.41  16 2.55  15 2.55
   3  0.565  0.676  0.384-  28 2.30  17 2.37  12 2.42   6 2.46  13 2.55  20 2.58
   4  0.573  0.266  0.385-  29 2.30  18 2.38  11 2.41   7 2.46  14 2.53  19 2.58
   5  0.338  0.468  0.624-  27 2.32   2 2.38  22 2.41  21 2.41  16 2.50  15 2.50
   6  0.660  0.621  0.492-  12 2.34  26 2.37  24 2.41  13 2.42  28 2.43   3 2.46
   7  0.665  0.325  0.493-  11 2.35  26 2.36  25 2.41  14 2.42  29 2.44   4 2.46
   8  0.327  0.574  0.345-  30 2.30   1 2.33  17 2.36  20 2.40  21 2.44  10 2.56
   9  0.331  0.361  0.345-  30 2.30   1 2.33  18 2.36  19 2.41  22 2.44  10 2.54
  10  0.403  0.468  0.252-  30 2.28  23 2.43  18 2.45  17 2.45   9 2.54   8 2.56
  11  0.538  0.264  0.531-  19 2.33   7 2.35  25 2.39  16 2.40   4 2.41  29 2.53
  12  0.530  0.677  0.530-  20 2.33   6 2.34  24 2.39  15 2.40   3 2.42  28 2.53
  13  0.658  0.549  0.359-  28 2.34  23 2.35   6 2.42  26 2.42  14 2.45   3 2.55
  14  0.660  0.396  0.359-  29 2.34  23 2.36   7 2.42  26 2.43  13 2.45   4 2.53
  15  0.423  0.595  0.595-  27 2.27  12 2.40  21 2.45   5 2.50  20 2.51  24 2.52   2 2.55
  16  0.427  0.343  0.595-  27 2.28  11 2.40  22 2.44   5 2.50  19 2.51  25 2.52   2 2.55
  17  0.468  0.595  0.308-  23 2.32   8 2.36   3 2.37  20 2.39  10 2.45  28 2.50  30 2.59
  18  0.474  0.345  0.309-  23 2.32   9 2.36   4 2.38  19 2.39  10 2.45  29 2.48  30 2.60
  19  0.427  0.301  0.444-  29 2.32  11 2.33  22 2.35  18 2.39   9 2.41  16 2.51   4 2.58  30 2.82

  20  0.421  0.636  0.443-  12 2.33  28 2.33  21 2.35  17 2.39   8 2.40  15 2.51   3 2.58  30 2.79
                            27 3.08
  21  0.320  0.543  0.494-  20 2.35   1 2.38   5 2.41  22 2.42   8 2.44  15 2.45  30 2.48  27 2.51

  22  0.323  0.392  0.494-  19 2.35   1 2.38   5 2.41  21 2.42  16 2.44   9 2.44  30 2.48  27 2.50

[...]

  26  0.660  0.473  0.489-   7 2.36   6 2.37  13 2.42  14 2.43  24 2.44  29 2.44  28 2.44  25 2.45

  27  0.452  0.470  0.535-  15 2.27  16 2.28   2 2.31   5 2.32  30 2.34  29 2.38  28 2.38  24 2.45
                            25 2.46  22 2.50  21 2.51  20 3.08
  28  0.537  0.548  0.440-   3 2.30  20 2.33  13 2.34  27 2.38   6 2.43  26 2.44  23 2.46  29 2.47
                            30 2.47  24 2.47  17 2.50  12 2.53
  29  0.539  0.394  0.441-   4 2.30  19 2.32  14 2.34  27 2.38  26 2.44   7 2.44  25 2.46  28 2.47
                            30 2.47  23 2.48  18 2.48  11 2.53
  30  0.412  0.469  0.394-  10 2.28   9 2.30   8 2.30  27 2.34  28 2.47  29 2.47  22 2.48  21 2.48
                            23 2.53  17 2.59  18 2.60   1 2.72  20 2.79  19 2.82
  31  0.486  0.745  0.750-  32 0.74
  32  0.499  0.776  0.782-  31 0.74

IMPORTANT INFORMATION: All symmetrisations will be switched off!
NOSYMM: (Re-)initialisation of all symmetry stuff for point group C_1.

                                     Primitive cell

  volume of cell :    4096.0000

  direct lattice vectors                    reciprocal lattice vectors
    16.000000000  0.000000000  0.000000000     0.062500000  0.000000000  0.000000000
     0.000000000 16.000000000  0.000000000     0.000000000  0.062500000  0.000000000
     0.000000000  0.000000000 16.000000000     0.000000000  0.000000000  0.062500000

  length of vectors
    16.000000000 16.000000000 16.000000000     0.062500000  0.062500000  0.062500000

  position of ions in fractional coordinates (direct lattice)
     0.242048125  0.465743750  0.393580625
     0.476647500  0.469960625  0.677245000
     0.565492500  0.676485000  0.383624375
     0.573113125  0.265545000  0.384993750
     0.337685625  0.467668125  0.623565000
     0.659788750  0.620613750  0.491540625
     0.665249375  0.325273750  0.492579375
     0.326750000  0.573690625  0.344816250
     0.331143750  0.361228125  0.345071875
     0.402573125  0.468090625  0.251906250
     0.537506250  0.264140000  0.531408125
     0.530314375  0.677114375  0.530476250
     0.658111250  0.548950625  0.358668125
     0.659673125  0.395603750  0.358807500
     0.422689375  0.595256875  0.594760000
     0.426833125  0.342996250  0.594718125
     0.468097500  0.594550000  0.307648750
     0.473522500  0.345161250  0.308788125
     0.427118750  0.300876875  0.443863125
     0.421298750  0.636289375  0.443343125
     0.319921250  0.543011250  0.494245625
     0.323288125  0.391971250  0.494260000
     0.544356250  0.471457500  0.306801250
     0.572671875  0.546640000  0.590112500
     0.574828750  0.395946250  0.590447500
     0.660083125  0.472715000  0.489474375
     0.452260000  0.469804375  0.534736250
     0.536607500  0.547763125  0.440055000
     0.538816250  0.393693750  0.440788125
     0.412308750  0.469145625  0.393803125
     0.486386492  0.744599861  0.750357271
     0.499475178  0.776012709  0.781770119

  ion indices of the primitive-cell ions
   primitive index   ion index
                 1           1
                 2           2
                 3           3
                 4           4
                 5           5
                 6           6
                 7           7
                 8           8
                 9           9
                10          10
                11          11
                12          12
                13          13
                14          14
                15          15
                16          16
                17          17
                18          18
                19          19
                20          20
                21          21
                22          22
                23          23
                24          24
                25          25
                26          26
                27          27
                28          28
                29          29
                30          30
                31          31
                32          32

 KPOINTS: KPOINTS created by Atomic Simulation Env

Automatic generation of k-mesh.
 Grid dimensions read from file:
 generate k-points for:    1    1    1

 Generating k-lattice:

  Cartesian coordinates                     Fractional coordinates (reciprocal lattice)
     0.062500000  0.000000000  0.000000000     1.000000000  0.000000000  0.000000000
     0.000000000  0.062500000  0.000000000     0.000000000  1.000000000  0.000000000
     0.000000000  0.000000000  0.062500000     0.000000000  0.000000000  1.000000000

  Length of vectors
     0.062500000  0.062500000  0.062500000

  Shift w.r.t. Gamma in fractional coordinates (k-lattice)
     0.000000000  0.000000000  0.000000000

 Subroutine IBZKPT returns following result:

 Found      1 irreducible k-points:

 Following reciprocal coordinates:
            Coordinates               Weight
  0.000000  0.000000  0.000000      1.000000

 Following cartesian coordinates:
            Coordinates               Weight
  0.000000  0.000000  0.000000      1.000000

 SYSTEM =  unknown system
 POSCAR =  Ni  H

 Startparameter for this run:
   NWRITE =      2    write-flag & timer
   PREC   = accura    normal or accurate (medium, high low for compatibility)
   ISTART =      0    job   : 0-new  1-cont  2-samecut
   ICHARG =      2    charge: 1-file 2-atom 10-const
   ISPIN  =      2    spin polarized calculation?
   LNONCOLLINEAR =      F non collinear calculations
   LSORBIT =      F    spin-orbit coupling
   INIWAV =      1    electr: 0-lowe 1-rand  2-diag
   LASPH  =      F    aspherical Exc in radial PAW
 Electronic Relaxation 1
   ENCUT  =  400.0 eV  29.40 Ry    5.42 a.u.  26.09 26.09 26.09*2*pi/ulx,y,z
   ENINI  =  400.0     initial cutoff
   ENAUG  =  544.6 eV  augmentation charge cutoff
   NELM   =    120;   NELMIN=  2; NELMDL= -5     # of ELM steps
   EDIFF  = 0.1E-03   stopping-criterion for ELM
   LREAL  =      F    real-space projection
   NLSPLINE    = F    spline interpolate recip. space projectors
   LCOMPAT=      F    compatible to vasp.4.4
   GGA_COMPAT  = T    GGA compatible to vasp.4.4-vasp.4.6
   LMAXPAW     = -100 max onsite density
   LMAXMIX     =    2 max onsite mixed and CHGCAR
   VOSKOWN=      0    Vosko Wilk Nusair interpolation
   ROPT   =    0.00000   0.00000
 Ionic relaxation
   EDIFFG = -.5E-01   stopping-criterion for IOM
   NSW    =     40    number of steps for IOM
   NBLOCK =      1;   KBLOCK =     40    inner block; outer block
   IBRION =      1    ionic relax: 0-MD 1-quasi-New 2-CG
   NFREE  =      0    steps in history (QN), initial steepest desc. (CG)
   ISIF   =      2    stress and relaxation
   IWAVPR =     11    prediction:  0-non 1-charg 2-wave 3-comb
   ISYM   =     -1    0-nonsym 1-usesym 2-fastsym
   LCORR  =      T    Harris-Foulkes like correction to forces

   POTIM  = 0.5000    time-step for ionic-motion
   TEIN   =    0.0    initial temperature
[...]
  -exchange      EXHF   =         0.00000000
  -V(xc)+E(xc)   XCENC  =       915.92026911
  PAW double counting   =     33189.71882834   -35237.02566656
  entropy T*S    EENTRO =        -0.00519654
  eigenvalues    EBANDS =     -1536.39624917
  atomic energy  EATOM  =     32354.87237921
  Solvation  Ediel_sol  =         0.00000000
  free energy    TOTEN  =      -135.24930886 eV

  energy without entropy =     -135.24411232  energy(sigma->0) =     -135.24671059

 average (electrostatic) potential at core
  the test charge radii are     0.9791  0.5201
  (the norm of the test charge is              1.0000)
       1 -94.0538       2 -94.1213       3 -94.0296       4 -94.0318       5 -94.1216
       6 -94.1370       7 -94.1370       8 -94.1969       9 -94.2000      10 -94.0018
      11 -94.1155      12 -94.1184      13 -94.1281      14 -94.1282      15 -94.1717
      16 -94.1782      17 -94.2155      18 -94.2288      19 -94.3042      20 -94.3088
      21 -94.3146      22 -94.3212      23 -94.3505      24 -94.2722      25 -94.2715
      26 -94.3850      27 -94.9608      28 -94.8391      29 -94.8432      30 -94.7658
      31 -40.4184      32 -40.4188

 E-fermi :  -3.1513     XC(G=0):  -1.9487     alpha+bet : -1.3254

 Fermi energy:        -3.1512923697

[...]

 k-point     1 :       0.0000    0.0000    0.0000
  band No.  band energies     occupation
      1     -10.7641      1.00000
      2      -9.1834      1.00000
      3      -9.1751      1.00000
      4      -9.1349      1.00000
      5      -9.0563      1.00000
      6      -7.8121      1.00000
      7      -7.7793      1.00000
      8      -7.7741      1.00000
      9      -7.6994      1.00000
     10      -7.6420      1.00000
     11      -7.5702      1.00000
     12      -7.5185      1.00000
     13      -7.4178      1.00000
     14      -7.3961      1.00000
     15      -7.2998      1.00000
     16      -7.1679      1.00000
     17      -7.1581      1.00000
     18      -7.1574      1.00000
     19      -7.1135      1.00000
     20      -7.0701      1.00000
     21      -6.9528      1.00000
     22      -6.9448      1.00000
     23      -6.9143      1.00000
     24      -6.7748      1.00000
     25      -6.7170      1.00000
     26      -6.6415      1.00000
     27      -6.5661      1.00000
     28      -6.4831      1.00000
     29      -6.4347      1.00000
     30      -6.4256      1.00000
     31      -6.3965      1.00000
     32      -6.3684      1.00000
     33      -6.3503      1.00000
     34      -6.2702      1.00000
     35      -6.2248      1.00000
     36      -6.2202      1.00000
     37      -6.1661      1.00000
     38      -6.1358      1.00000
     39      -6.0781      1.00000
     40      -6.0686      1.00000
     41      -6.0664      1.00000
     42      -6.0103      1.00000
     43      -5.9987      1.00000
     44      -5.9814      1.00000
     45      -5.9214      1.00000
     46      -5.8924      1.00000
     47      -5.8610      1.00000
     48      -5.8434      1.00000
     49      -5.8339      1.00000
     50      -5.8235      1.00000
     51      -5.8115      1.00000
     52      -5.7940      1.00000
     53      -5.7746      1.00000
     54      -5.7243      1.00000
     55      -5.6724      1.00000
     56      -5.6255      1.00000
     57      -5.6030      1.00000
     58      -5.5831      1.00000
     59      -5.5424      1.00000
     60      -5.5171      1.00000
[...]
    184      -0.2941      0.00000
    185      -0.2143      0.00000
    186      -0.0532      0.00000
    187       0.8439      0.00000
    188       0.9838      0.00000
    189       1.0083      0.00000
    190       1.1348      0.00000
    191       1.1445      0.00000
    192       1.2112      0.00000
    193       1.3025      0.00000
    194       1.3859      0.00000
    195       1.4093      0.00000
    196       1.4469      0.00000
    197       1.4614      0.00000
    198       1.4913      0.00000
 Fermi energy:        -3.1512923697

 spin component 2

 k-point     1 :       0.0000    0.0000    0.0000
  band No.  band energies     occupation
      1     -10.7874      1.00000
      2      -9.1836      1.00000
      3      -9.1764      1.00000
      4      -9.1333      1.00000
      5      -9.0486      1.00000
      6      -7.6334      1.00000
      7      -7.6234      1.00000
      8      -7.5964      1.00000
      9      -7.5206      1.00000
     10      -7.4136      1.00000
     11      -7.2622      1.00000
     12      -7.0990      1.00000
     13      -7.0592      1.00000
     14      -7.0213      1.00000
     15      -6.9792      1.00000
     16      -6.7798      1.00000
     17      -6.7700      1.00000
     18      -6.6997      1.00000
     19      -6.6819      1.00000
     20      -6.6166      1.00000
     21      -6.5602      1.00000
     22      -6.5265      1.00000
     23      -6.4784      1.00000
     24      -6.2298      1.00000
     25      -6.2050      1.00000
     26      -6.0921      1.00000
     27      -6.0275      1.00000
     28      -5.9042      1.00000
     29      -5.8616      1.00000
     30      -5.8272      1.00000
     31      -5.8166      1.00000
     32      -5.7849      1.00000
     33      -5.7317      1.00000
     34      -5.6795      1.00000
     35      -5.6566      1.00000
     36      -5.6051      1.00000
     37      -5.5761      1.00000
     38      -5.5388      1.00000
     39      -5.5161      1.00000
     40      -5.4762      1.00000
     41      -5.4651      1.00000
     42      -5.4203      1.00000
     43      -5.3717      1.00000
     44      -5.3470      1.00000
     45      -5.3313      1.00000
     46      -5.3097      1.00000
     47      -5.2527      1.00000
     48      -5.2346      1.00000
     49      -5.2296      1.00000
     50      -5.2127      1.00000
     51      -5.1741      1.00000
     52      -5.1591      1.00000
     53      -5.1288      1.00000
     54      -5.0794      1.00000
     55      -5.0420      1.00000
     56      -5.0010      1.00000
     57      -4.9567      1.00000
     58      -4.9457      1.00000
     59      -4.9410      1.00000
     60      -4.8632      1.00000
[...]
    184      -0.1195      0.00000
    185      -0.0374      0.00000
    186       0.0924      0.00000
    187       0.9335      0.00000
    188       1.0537      0.00000
    189       1.0906      0.00000
    190       1.2094      0.00000
    191       1.2470      0.00000
    192       1.2949      0.00000
    193       1.3601      0.00000
    194       1.4665      0.00000
    195       1.4904      0.00000
    196       1.5108      0.00000
    197       1.5327      0.00000
    198       1.5557      0.00000

[...]

 soft charge-density along one line, spin component           2
         0         1         2         3         4         5         6         7         8         9
 total charge-density along one line

------------------------ aborting loop because EDIFF is reached ----------------------------------------

  FORCE on cell =-STRESS in cart. coord.  units (eV):
  Direction    XX          YY          ZZ          XY          YZ          ZX
  Alpha Z   113.16553   113.16553   113.16553
  Ewald   19997.70115 20133.31785 15999.94894    -3.79455   234.53034   501.58407
  Hartree 29868.42406 30027.32644 26171.62139    -8.59779   215.58847   457.30488
  E(xc)   -1652.02990 -1652.02681 -1652.40837     0.04424     0.11011     0.06379
  Local  -55671.91992-55964.52953-47989.36764    14.18289  -446.35385  -957.50745
  n-local  -295.41577  -297.61443  -298.10395    -0.07963    -0.39788    -0.17976
  augment  5284.16195  5286.07849  5295.53782    -0.17434    -0.13700     0.33005
  Kinetic  2353.66966  2352.36650  2357.92445    -1.43249    -3.31522    -1.63873
  Fock        0.00000     0.00000     0.00000     0.00000     0.00000     0.00000
  Total      -2.24322    -1.91595    -1.68183     0.14834     0.02498    -0.04316
  in kB      -0.87745    -0.74944    -0.65786     0.05802     0.00977    -0.01688

 VOLUME and BASIS-vectors are now :
  energy-cutoff  :      400.00
  volume of cell :     4096.00
      direct lattice vectors                 reciprocal lattice vectors
    16.000000000  0.000000000  0.000000000     0.062500000  0.000000000  0.000000000
     0.000000000 16.000000000  0.000000000     0.000000000  0.062500000  0.000000000
     0.000000000  0.000000000 16.000000000     0.000000000  0.000000000  0.062500000

  length of vectors
    16.000000000 16.000000000 16.000000000     0.062500000  0.062500000  0.062500000

 FORCES acting on ions
    electron-ion (+dipol)            ewald-force                    non-local-force                 convergence-correction
   0.164E+04 0.338E+02 0.373E+03   -.163E+04 -.338E+02 -.371E+03   -.687E+01 -.134E+00 -.193E+01   0.661E-02 0.485E-01 0.574E-01
   -.438E+02 0.719E+01 -.176E+04   0.431E+02 -.720E+01 0.176E+04   0.672E+00 0.133E-01 0.635E+01   0.152E-01 0.500E-02 -.177E-01
   -.528E+03 -.151E+04 0.693E+03   0.527E+03 0.151E+04 -.690E+03   0.142E+01 0.527E+01 -.312E+01   -.490E-01 0.117E-01 0.465E-01
   -.579E+03 0.150E+04 0.682E+03   0.577E+03 -.150E+04 -.679E+03   0.158E+01 -.526E+01 -.308E+01   0.225E-01 -.536E-01 0.702E-01
   0.122E+04 0.254E+02 -.131E+04   -.122E+04 -.254E+02 0.130E+04   -.454E+01 -.788E-01 0.388E+01   -.486E-01 0.162E-01 -.560E-01
   -.139E+04 -.102E+04 -.367E+03   0.138E+04 0.102E+04 0.365E+03   0.519E+01 0.305E+01 0.126E+01   -.383E-01 0.261E-01 0.529E-02
   -.142E+04 0.974E+03 -.376E+03   0.141E+04 -.971E+03 0.375E+03   0.534E+01 -.284E+01 0.127E+01   -.133E-01 -.898E-03 0.346E-01
   0.119E+04 -.952E+03 0.887E+03   -.118E+04 0.950E+03 -.884E+03   -.311E+01 0.278E+01 -.249E+01   0.177E-02 0.564E-01 0.918E-01
   0.115E+04 0.998E+03 0.886E+03   -.115E+04 -.995E+03 -.883E+03   -.298E+01 -.286E+01 -.244E+01   -.954E-01 0.324E-03 0.780E-01
   0.547E+03 0.163E+02 0.168E+04   -.545E+03 -.164E+02 -.168E+04   -.227E+01 -.359E-01 -.576E+01   -.699E-01 0.974E-01 -.195E-01
   -.278E+03 0.156E+04 -.708E+03   0.277E+03 -.156E+04 0.705E+03   0.289E+00 -.461E+01 0.238E+01   0.138E-01 0.155E-03 0.802E-01
   -.227E+03 -.157E+04 -.688E+03   0.227E+03 0.156E+04 0.686E+03   0.143E+00 0.463E+01 0.233E+01   -.582E-02 0.706E-02 -.256E-01
   -.137E+04 -.568E+03 0.945E+03   0.137E+04 0.566E+03 -.942E+03   0.346E+01 0.164E+01 -.342E+01   -.112E-01 0.636E-01 0.325E-01
   -.138E+04 0.531E+03 0.947E+03   0.138E+04 -.529E+03 -.944E+03   0.345E+01 -.151E+01 -.340E+01   0.628E-01 0.293E-01 0.307E-01
   0.575E+03 -.113E+04 -.119E+04   -.574E+03 0.113E+04 0.118E+04   -.101E+01 0.247E+01 0.262E+01   -.292E-01 0.894E-01 -.700E-01
   0.535E+03 0.116E+04 -.120E+04   -.534E+03 -.116E+04 0.119E+04   -.947E+00 -.250E+01 0.263E+01   0.225E-02 -.530E-01 -.499E-02
   0.757E+02 -.106E+04 0.136E+04   -.763E+02 0.106E+04 -.136E+04   0.630E+00 0.176E+01 -.249E+01   0.372E-02 0.127E+00 0.517E-01
   0.328E+02 0.107E+04 0.136E+04   -.335E+02 -.107E+04 -.136E+04   0.686E+00 -.171E+01 -.243E+01   0.509E-03 -.423E-01 -.110E-01
   0.628E+03 0.153E+04 0.722E+02   -.628E+03 -.152E+04 -.724E+02   -.705E+00 -.155E+01 0.642E-01   -.265E-01 -.155E-01 0.142E+00
   0.678E+03 -.150E+04 0.781E+02   -.677E+03 0.150E+04 -.782E+02   -.727E+00 0.149E+01 0.764E-01   0.253E-01 0.432E-03 0.368E-01
   0.142E+04 -.762E+03 -.430E+03   -.142E+04 0.760E+03 0.429E+03   -.154E+01 0.119E+01 0.320E+00   -.141E-01 0.340E-01 -.256E-01
   0.139E+04 0.813E+03 -.431E+03   -.139E+04 -.812E+03 0.430E+03   -.144E+01 -.120E+01 0.311E+00   -.645E-01 0.167E-01 0.230E-01
   -.598E+03 -.113E+02 0.151E+04   0.598E+03 0.111E+02 -.150E+04   0.702E+00 0.284E-01 -.805E+00   0.439E-01 0.112E+00 -.384E-01
   -.840E+03 -.602E+03 -.131E+04   0.839E+03 0.602E+03 0.131E+04   0.101E+01 0.583E+00 0.154E+01   -.335E-02 0.685E-01 -.282E-01
   -.855E+03 0.583E+03 -.132E+04   0.854E+03 -.583E+03 0.132E+04   0.100E+01 -.560E+00 0.153E+01   0.377E-01 -.210E-01 0.392E-02
   -.158E+04 -.244E+02 -.424E+03   0.158E+04 0.244E+02 0.424E+03   0.145E+01 0.196E-01 0.350E+00   0.314E-01 0.193E-01 0.722E-01
   0.255E+03 0.552E+01 -.650E+03   -.255E+03 -.556E+01 0.649E+03   -.297E+00 0.109E-01 0.723E+00   -.551E-01 0.322E-01 0.157E-01
   -.395E+03 -.593E+03 0.142E+03   0.395E+03 0.592E+03 -.142E+03   0.189E+00 0.503E+00 0.117E+00   0.149E-01 0.128E+00 0.495E-01
   -.410E+03 0.585E+03 0.134E+03   0.410E+03 -.584E+03 -.135E+03   0.200E+00 -.507E+00 0.127E+00   0.578E-01 0.121E-01 0.109E+00
   0.557E+03 0.950E+01 0.506E+03   -.556E+03 -.959E+01 -.506E+03   -.591E+00 -.277E-01 -.382E+00   -.391E-01 0.115E+00 0.897E-01
   0.591E+01 -.384E+02 -.436E+02   -.730E+01 0.349E+02 0.402E+02   0.140E+01 0.341E+01 0.340E+01   0.625E-04 0.954E-03 -.149E-02
   -.767E+01 -.526E+02 -.554E+02   0.907E+01 0.560E+02 0.588E+02   -.141E+01 -.340E+01 -.341E+01   -.145E-03 0.226E-03 -.142E-02
   -.136E+00 -.102E+01 0.304E+01   -.725E-12 -.145E-11 -.284E-13   0.359E+00 0.691E-01 -.386E+01   -.223E+00 0.932E+00 0.821E+00

 POSITION                                       TOTAL-FORCE (eV/Angst)
      3.87968      7.45173      6.29846         0.036001     -0.002343     -0.000695
      7.62633      7.51999     10.83278        -0.001678      0.005151     -0.001229
      9.04620     10.82159      6.13955        -0.011718     -0.013583      0.009271
      9.16511      4.25097      6.16059        -0.031383      0.007530     -0.000453
      5.40571      7.48330      9.97553         0.007710      0.002445     -0.004742
     10.55295      9.92672      7.86393        -0.012097     -0.014131     -0.000992
     10.63690      5.20623      7.87850        -0.032534      0.009700     -0.017804
      5.23259      9.17576      5.51859         0.025274     -0.008383      0.005252
      5.30220      5.78092      5.52282         0.023044     -0.002058      0.004948
      6.43966      7.48987      4.03389        -0.016826      0.001698      0.009644
      8.60065      4.22938      8.50208        -0.000273      0.007163      0.007154
      8.48610     10.83137      8.48767         0.005842     -0.001829      0.008180
     10.52535      8.78165      5.73976        -0.022556     -0.005469     -0.000576
     10.55063      6.33339      5.74203        -0.020644      0.021690     -0.000968
      6.76347      9.52320      9.51415        -0.002927      0.000204     -0.005451
      6.83158      5.49025      9.51347         0.008191      0.007562     -0.004985
      7.48951      9.51149      4.92355         0.007096     -0.004822      0.003052
      7.57634      5.52335      4.94141         0.001951      0.003066     -0.004993
      6.83705      4.81817      7.10347         0.016513      0.024224      0.010583
      6.74504     10.17591      7.09548         0.022680     -0.028045      0.012144
      5.12202      8.68536      7.90647         0.019493     -0.012250     -0.003641
      5.17370      6.27224      7.90574         0.008372     -0.001919     -0.004603
      8.70808      7.54320      4.90839        -0.014556     -0.000494     -0.012109
      9.15767      8.74504      9.43912        -0.023946      0.001471     -0.004792
      9.19456      6.33883      9.44422        -0.010489      0.016705     -0.009339
     10.55788      7.56366      7.83273        -0.007702      0.001547      0.011215
      7.23664      7.51638      8.55625        -0.005664     -0.000874     -0.006454
      8.58672      8.76067      7.04389         0.003871     -0.019360      0.007908
      8.62159      6.30169      7.05381        -0.002684      0.015162      0.000109
      6.60064      7.50658      6.30060         0.029538     -0.004385      0.002688
      7.78178     11.90915     12.00132         0.011385     -0.003187     -0.003263
      7.99225     12.41998     12.51183        -0.009284     -0.002186     -0.005057
    total drift:                                0.000044     -0.018145     -0.004173

  FREE ENERGIE OF THE ION-ELECTRON SYSTEM (eV)
  free  energy   TOTEN  =      -135.24930886 eV

  energy  without entropy=     -135.24411232  energy(sigma->0) =     -135.24671059

 d Force = 0.1064144E-02[ 0.916E-03, 0.121E-02]  d Energy = 0.1062154E-02 0.199E-05
 d Force =-0.4930661E+02[-0.493E+02,-0.493E+02]  d Ewald  =-0.4930661E+02-0.575E-06

 stress matrix after NEB project (eV)
     -2.24322      0.14834     -0.04316
      0.14834     -1.91595      0.02498
     -0.04316      0.02498     -1.68183
  FORCES: max atom, RMS     0.038335    0.021595
  FORCE total and by dimension    0.122161    0.036001
  Stress total and by dimension    3.403008    2.243224
 Quasi-Newton relaxation of ions (Broydens 2nd method)
  g(Force)  = 0.720E-03   g(Stress)= 0.000E+00

 retain information from N=  2 steps
 eigenvalues of (default step * inverse Hessian matrix)
  average eigenvalue of G=   1.6564
 eigenvalue spectrum of G is  0.3378  2.9751

 reached required accuracy - stopping structural energy minimisation