 vasp.6.3.2 27Jun22 (build Nov 14 2022 18:12:39) complex

 executed on                 Saga date 2023.01.31  12:48:38

 INCAR:
   ENCUT = 400.000000
   SIGMA = 0.020000
   EDIFFG = -5.00e-02
   GGA = PE
   PREC = Accurate
   IBRION = 1
   ISMEAR = 0
   ISPIN = 2
   ISTART = 0
   ISYM = -1
   NELM = 120
   NSW = 40
   NCORE = 20
   LCHARG = .FALSE.
   LWAVE = .FALSE.

 POTCAR:    PAW_PBE Ni 02Aug2007
 POTCAR:    PAW_PBE H 15Jun2001
|           W    W    AA    RRRRR   N    N  II  N    N   GGGG   !!!           |
|           W    W   A  A   R    R  NN   N  II  NN   N  G    G  !!!           |
|           W    W  A    A  R    R  N N  N  II  N N  N  G       !!!           |
|           W WW W  AAAAAA  RRRRR   N  N N  II  N  N N  G  GGG   !            |
|           WW  WW  A    A  R   R   N   NN  II  N   NN  G    G                |
|           W    W  A    A  R    R  N    N  II  N    N   GGGG   !!!           |
|     You use a magnetic or noncollinear calculation, but did not specify     |
|     the initial magnetic moment with the MAGMOM tag. Note that a            |
|     default of 1 will be used for all atoms. This ferromagnetic setup       |
|     may break the symmetry of the crystal, in particular it may rule        |
|     out finding an antiferromagnetic solution. Thence, we recommend         |
|     setting the initial magnetic moment manually or verifying carefully     |
|     that this magnetic setup is desired.                                    |

 POTCAR:    PAW_PBE Ni 02Aug2007
   VRHFIN =Ni:

   TITEL  = PAW_PBE Ni 02Aug2007
   POMASS =   58.690; ZVAL   =   10.000    mass and valenz
   ENMAX  =  269.532; ENMIN  =  202.149 eV

 POTCAR:    PAW_PBE H 15Jun2001
   VRHFIN =H: ultrasoft test

   TITEL  = PAW_PBE H 15Jun2001
   POMASS =    1.000; ZVAL   =    1.000    mass and valenz
   ENMAX  =  250.000; ENMIN  =  200.000 eV

  PAW_PBE Ni 02Aug2007                  :
  PAW_PBE H 15Jun2001                   :

 POSCAR: Ni  H
  positions in cartesian coordinates
 exchange correlation table for  LEXCH =        8
   RHO(1)=    0.500       N(1)  =     2000
   RHO(2)=  100.500       N(2)  =     4000

 VTST: version 4.2, (08/11/21)

 CHAIN: initializing optimizer

 OPT: Using VASP QUASI-newton optimizer
 CHAIN: Read ICHAIN            0

 POSCAR: Ni  H
  positions in cartesian coordinates

 ion  position               nearest neighbor table
   1  0.249  0.467  0.382-   9 2.34   8 2.34  22 2.45  21 2.46  30 2.59  10 2.99
   2  0.471  0.471  0.686-  27 2.40   5 2.42  24 2.47  25 2.47  15 2.57  16 2.57
   3  0.565  0.685  0.391-  28 2.38  17 2.43  12 2.46   6 2.47  13 2.55  20 2.65
   4  0.576  0.268  0.387-  29 2.38  18 2.43  11 2.46   7 2.46  14 2.56  19 2.65
   5  0.330  0.467  0.631-  27 2.41   2 2.42  22 2.46  21 2.47  15 2.56  16 2.56
   6  0.661  0.629  0.498-  12 2.41  26 2.42  13 2.45   3 2.47  28 2.51  24 2.51
   7  0.670  0.326  0.495-  11 2.41  26 2.43  14 2.46   4 2.46  29 2.50  25 2.51
   8  0.321  0.588  0.343-   1 2.34  17 2.38  20 2.44  30 2.50  10 2.55  21 2.58
   9  0.328  0.351  0.342-   1 2.34  18 2.38  19 2.44  30 2.50  10 2.56  22 2.58
  10  0.386  0.472  0.256-  30 2.30   8 2.55   9 2.56  18 2.57  17 2.58  23 2.66   1 2.99
  11  0.540  0.262  0.536-  19 2.39   7 2.41  25 2.42   4 2.46  16 2.47  29 2.63
  12  0.528  0.685  0.540-  20 2.39   6 2.41  24 2.43   3 2.46  15 2.46  28 2.61
  13  0.658  0.559  0.362-  28 2.40  23 2.41   6 2.45  26 2.49   3 2.55  14 2.56
  14  0.663  0.399  0.360-  29 2.40  23 2.41   7 2.46  26 2.50  13 2.56   4 2.56
  15  0.418  0.598  0.603-  27 2.34  12 2.46  21 2.52  24 2.52  20 2.54   5 2.56   2 2.57
  16  0.424  0.341  0.603-  27 2.34  11 2.47  25 2.53  19 2.53  22 2.55   5 2.56   2 2.57
  17  0.466  0.600  0.312-  23 2.33   8 2.38  20 2.43   3 2.43  28 2.56  10 2.58  30 2.63
  18  0.474  0.349  0.310-  23 2.33   9 2.38   4 2.43  19 2.44  29 2.56  10 2.57  30 2.62
  19  0.427  0.306  0.449-  29 2.36  22 2.38  11 2.39  18 2.44   9 2.44  16 2.53   4 2.65  30 2.79
                            27 3.01
  20  0.417  0.640  0.450-  28 2.37  21 2.38  12 2.39  17 2.43   8 2.44  15 2.54   3 2.65  30 2.83

  21  0.314  0.544  0.498-  20 2.38  22 2.43   1 2.46   5 2.47  30 2.51  15 2.52  27 2.52   8 2.58

[...]

  26  0.662  0.478  0.495-   6 2.42   7 2.43  29 2.44  28 2.46  13 2.49  24 2.50  14 2.50  25 2.51

  27  0.447  0.470  0.538-  30 2.32  16 2.34  15 2.34  29 2.38  28 2.38   2 2.40   5 2.41  25 2.48
                            24 2.50  22 2.51  21 2.52  19 3.01
  28  0.535  0.551  0.448-  20 2.37   3 2.38  27 2.38  13 2.40  29 2.42  24 2.43  26 2.46  30 2.50
                            23 2.51   6 2.51  17 2.56  12 2.61
  29  0.541  0.400  0.446-  19 2.36  27 2.38   4 2.38  14 2.40  28 2.42  25 2.44  26 2.44  23 2.49
                             7 2.50  30 2.51  18 2.56  11 2.63
  30  0.410  0.471  0.398-  10 2.30  27 2.32   9 2.50   8 2.50  28 2.50  21 2.51  29 2.51  22 2.52
                            23 2.55   1 2.59  18 2.62  17 2.63  19 2.79  20 2.83
  31  0.543  0.648  0.675-
  32  0.471  0.701  0.659-

IMPORTANT INFORMATION: All symmetrisations will be switched off!
NOSYMM: (Re-)initialisation of all symmetry stuff for point group C_1.

                                     Primitive cell

  volume of cell :    4096.0000

  direct lattice vectors                    reciprocal lattice vectors
    16.000000000  0.000000000  0.000000000     0.062500000  0.000000000  0.000000000
     0.000000000 16.000000000  0.000000000     0.000000000  0.062500000  0.000000000
     0.000000000  0.000000000 16.000000000     0.000000000  0.000000000  0.062500000

  length of vectors
    16.000000000 16.000000000 16.000000000     0.062500000  0.062500000  0.062500000

  position of ions in fractional coordinates (direct lattice)
     0.248907746  0.467161032  0.382275005
     0.470752996  0.470836036  0.686032823
     0.565099294  0.684870936  0.391078104
     0.576410771  0.267956481  0.387017439
     0.329819213  0.467372073  0.631327091
     0.661221272  0.629312913  0.498101764
     0.669507972  0.326400054  0.494731660
     0.321378151  0.588342011  0.343375866
     0.328160090  0.350809724  0.341903746
     0.386400522  0.472249463  0.255752101
     0.539661862  0.262367359  0.536299133
     0.527962495  0.684913483  0.540095180
     0.658090472  0.559048608  0.362254571
     0.663071430  0.399389288  0.359679291
     0.417911324  0.597685051  0.603273089
     0.424386623  0.341083149  0.602939498
     0.466301454  0.600045930  0.312435527
     0.473500705  0.348574205  0.310065756
     0.427100088  0.305784901  0.448649396
     0.417068150  0.640179416  0.450454613
     0.313973587  0.544037933  0.498104941
     0.316829134  0.392350509  0.497453929
     0.543111385  0.476336341  0.310420644
     0.568022907  0.549754692  0.596220848
     0.571826503  0.397663366  0.595051948
     0.662048441  0.477881222  0.494675927
     0.447390906  0.470078652  0.537565434
     0.534960301  0.550651050  0.447995995
     0.540563381  0.399696733  0.445842461
     0.409784333  0.471463839  0.397740568
     0.542749685  0.648038884  0.675488929
     0.471437224  0.700664113  0.658952241

  ion indices of the primitive-cell ions
   primitive index   ion index
                 1           1
                 2           2
                 3           3
                 4           4
                 5           5
                 6           6
                 7           7
                 8           8
                 9           9
                10          10
                11          11
                12          12
                13          13
                14          14
                15          15
                16          16
                17          17
                18          18
                19          19
                20          20
                21          21
                22          22
                23          23
                24          24
                25          25
                26          26
                27          27
                28          28
                29          29
                30          30
                31          31
                32          32

 KPOINTS: KPOINTS created by Atomic Simulation Env

Automatic generation of k-mesh.
 Grid dimensions read from file:
 generate k-points for:    1    1    1

 Generating k-lattice:

  Cartesian coordinates                     Fractional coordinates (reciprocal lattice)
     0.062500000  0.000000000  0.000000000     1.000000000  0.000000000  0.000000000
     0.000000000  0.062500000  0.000000000     0.000000000  1.000000000  0.000000000
     0.000000000  0.000000000  0.062500000     0.000000000  0.000000000  1.000000000

  Length of vectors
     0.062500000  0.062500000  0.062500000

  Shift w.r.t. Gamma in fractional coordinates (k-lattice)
     0.000000000  0.000000000  0.000000000

 Subroutine IBZKPT returns following result:

 Found      1 irreducible k-points:

 Following reciprocal coordinates:
            Coordinates               Weight
  0.000000  0.000000  0.000000      1.000000

 Following cartesian coordinates:
            Coordinates               Weight
  0.000000  0.000000  0.000000      1.000000

 SYSTEM =  unknown system
 POSCAR =  Ni  H

 Startparameter for this run:
   NWRITE =      2    write-flag & timer
   PREC   = accura    normal or accurate (medium, high low for compatibility)
   ISTART =      0    job   : 0-new  1-cont  2-samecut
   ICHARG =      2    charge: 1-file 2-atom 10-const
   ISPIN  =      2    spin polarized calculation?
   LNONCOLLINEAR =      F non collinear calculations
   LSORBIT =      F    spin-orbit coupling
   INIWAV =      1    electr: 0-lowe 1-rand  2-diag
   LASPH  =      F    aspherical Exc in radial PAW
 Electronic Relaxation 1
   ENCUT  =  400.0 eV  29.40 Ry    5.42 a.u.  26.09 26.09 26.09*2*pi/ulx,y,z
   ENINI  =  400.0     initial cutoff
   ENAUG  =  544.6 eV  augmentation charge cutoff
   NELM   =    120;   NELMIN=  2; NELMDL= -5     # of ELM steps
   EDIFF  = 0.1E-03   stopping-criterion for ELM
   LREAL  =      F    real-space projection
   NLSPLINE    = F    spline interpolate recip. space projectors
   LCOMPAT=      F    compatible to vasp.4.4
   GGA_COMPAT  = T    GGA compatible to vasp.4.4-vasp.4.6
   LMAXPAW     = -100 max onsite density
   LMAXMIX     =    2 max onsite mixed and CHGCAR
   VOSKOWN=      0    Vosko Wilk Nusair interpolation
   ROPT   =    0.00000   0.00000
 Ionic relaxation
   EDIFFG = -.5E-01   stopping-criterion for IOM
   NSW    =     40    number of steps for IOM
   NBLOCK =      1;   KBLOCK =     40    inner block; outer block
   IBRION =      1    ionic relax: 0-MD 1-quasi-New 2-CG
   NFREE  =      0    steps in history (QN), initial steepest desc. (CG)
   ISIF   =      2    stress and relaxation
   IWAVPR =     11    prediction:  0-non 1-charg 2-wave 3-comb
   ISYM   =     -1    0-nonsym 1-usesym 2-fastsym
   LCORR  =      T    Harris-Foulkes like correction to forces

   POTIM  = 0.5000    time-step for ionic-motion
   TEIN   =    0.0    initial temperature
   TEBEG  =    0.0;   TEEND  =   0.0 temperature during run
   SMASS  =  -3.00    Nose mass-parameter (am)
[...]
  -Hartree energ DENC   =    -86617.47946375
  -exchange      EXHF   =         0.00000000
  -V(xc)+E(xc)   XCENC  =       916.17823892
  PAW double counting   =     33292.51581273   -35341.19254185
  entropy T*S    EENTRO =        -0.00716104
  eigenvalues    EBANDS =     -1560.96928897
  atomic energy  EATOM  =     32354.87237921
  Solvation  Ediel_sol  =         0.00000000
  free energy    TOTEN  =      -136.03747127 eV

  energy without entropy =     -136.03031023  energy(sigma->0) =     -136.03389075

 average (electrostatic) potential at core
  the test charge radii are     0.9791  0.5201
  (the norm of the test charge is              1.0000)
       1 -94.2262       2 -94.1657       3 -94.1194       4 -94.1358       5 -94.2412
       6 -94.2051       7 -94.2360       8 -94.2476       9 -94.2552      10 -94.0583
      11 -94.2099      12 -94.2025      13 -94.2487      14 -94.2529      15 -94.2287
      16 -94.2761      17 -94.3549      18 -94.3227      19 -94.3987      20 -94.3888
      21 -94.3221      22 -94.3739      23 -94.4436      24 -94.3622      25 -94.4341
      26 -94.4026      27 -94.9578      28 -94.9325      29 -94.9716      30 -94.7357
      31 -39.9914      32 -39.6046

 E-fermi :  -3.2146     XC(G=0):  -1.8956     alpha+bet : -1.3254

 Fermi energy:        -3.2145719764

[...]

 k-point     1 :       0.0000    0.0000    0.0000
  band No.  band energies     occupation
      1     -10.9089      1.00000
      2      -9.8281      1.00000
      3      -9.2540      1.00000
      4      -9.1702      1.00000
      5      -8.6500      1.00000
      6      -8.2771      1.00000
      7      -7.8591      1.00000
      8      -7.8262      1.00000
      9      -7.7450      1.00000
     10      -7.7223      1.00000
     11      -7.6770      1.00000
     12      -7.5180      1.00000
     13      -7.5001      1.00000
     14      -7.4343      1.00000
     15      -7.3432      1.00000
     16      -7.2603      1.00000
     17      -7.2333      1.00000
     18      -7.2006      1.00000
     19      -7.1875      1.00000
     20      -7.1051      1.00000
     21      -7.0876      1.00000
     22      -7.0506      1.00000
     23      -6.9808      1.00000
     24      -6.9542      1.00000
     25      -6.8298      1.00000
     26      -6.7288      1.00000
     27      -6.6857      1.00000
     28      -6.5588      1.00000
     29      -6.5340      1.00000
     30      -6.4914      1.00000
     31      -6.4890      1.00000
     32      -6.4309      1.00000
     33      -6.4238      1.00000
     34      -6.4136      1.00000
     35      -6.3066      1.00000
     36      -6.2826      1.00000
     37      -6.2495      1.00000
     38      -6.2100      1.00000
     39      -6.1992      1.00000
     40      -6.1624      1.00000
     41      -6.1530      1.00000
     42      -6.1122      1.00000
     43      -6.0707      1.00000
     44      -6.0032      1.00000
     45      -5.9815      1.00000
     46      -5.9705      1.00000
     47      -5.9525      1.00000
     48      -5.9401      1.00000
     49      -5.9277      1.00000
     50      -5.8983      1.00000
     51      -5.8740      1.00000
     52      -5.8670      1.00000
     53      -5.8082      1.00000
     54      -5.7774      1.00000
     55      -5.7367      1.00000
     56      -5.7171      1.00000
     57      -5.6804      1.00000
     58      -5.6551      1.00000
     59      -5.6365      1.00000
     60      -5.6006      1.00000
[...]
    184      -0.2557      0.00000
    185      -0.1481      0.00000
    186       0.4199      0.00000
    187       0.9244      0.00000
    188       0.9891      0.00000
    189       1.0078      0.00000
    190       1.0848      0.00000
    191       1.1626      0.00000
    192       1.2150      0.00000
    193       1.3071      0.00000
    194       1.3830      0.00000
    195       1.4045      0.00000
    196       1.4799      0.00000
    197       1.5146      0.00000
    198       1.5308      0.00000
 Fermi energy:        -3.2145719764

 spin component 2

 k-point     1 :       0.0000    0.0000    0.0000
  band No.  band energies     occupation
      1     -10.9242      1.00000
      2      -9.8211      1.00000
      3      -9.2446      1.00000
      4      -9.1537      1.00000
      5      -8.5705      1.00000
      6      -8.1507      1.00000
      7      -7.6749      1.00000
      8      -7.6588      1.00000
      9      -7.5832      1.00000
     10      -7.3799      1.00000
     11      -7.3549      1.00000
     12      -7.1954      1.00000
     13      -7.1004      1.00000
     14      -7.0778      1.00000
     15      -7.0031      1.00000
     16      -6.8772      1.00000
     17      -6.8405      1.00000
     18      -6.7835      1.00000
     19      -6.7620      1.00000
     20      -6.6998      1.00000
     21      -6.6556      1.00000
     22      -6.5935      1.00000
     23      -6.5826      1.00000
     24      -6.5348      1.00000
     25      -6.2781      1.00000
     26      -6.2048      1.00000
     27      -6.1531      1.00000
     28      -6.0115      1.00000
     29      -5.9367      1.00000
     30      -5.9193      1.00000
     31      -5.8898      1.00000
     32      -5.8695      1.00000
     33      -5.8528      1.00000
     34      -5.7761      1.00000
     35      -5.7308      1.00000
     36      -5.7078      1.00000
     37      -5.6743      1.00000
     38      -5.6312      1.00000
     39      -5.6154      1.00000
     40      -5.5593      1.00000
     41      -5.5477      1.00000
     42      -5.5267      1.00000
     43      -5.4622      1.00000
     44      -5.4217      1.00000
     45      -5.4000      1.00000
     46      -5.3628      1.00000
     47      -5.3374      1.00000
     48      -5.3203      1.00000
     49      -5.2804      1.00000
     50      -5.2638      1.00000
     51      -5.2616      1.00000
     52      -5.2409      1.00000
     53      -5.2037      1.00000
     54      -5.1915      1.00000
     55      -5.1350      1.00000
     56      -5.0859      1.00000
     57      -5.0660      1.00000
     58      -5.0379      1.00000
     59      -5.0003      1.00000
     60      -4.9709      1.00000
[...]
    184      -0.0666      0.00000
    185       0.0041      0.00000
    186       0.5827      0.00000
    187       1.0259      0.00000
    188       1.0555      0.00000
    189       1.0944      0.00000
    190       1.1604      0.00000
    191       1.2621      0.00000
    192       1.3116      0.00000
    193       1.3891      0.00000
    194       1.4240      0.00000
    195       1.4677      0.00000
    196       1.5238      0.00000
    197       1.5497      0.00000
    198       1.5714      0.00000

[...]

 soft charge-density along one line, spin component           2
         0         1         2         3         4         5         6         7         8         9
 total charge-density along one line

------------------------ aborting loop because EDIFF is reached ----------------------------------------

  FORCE on cell =-STRESS in cart. coord.  units (eV):
  Direction    XX          YY          ZZ          XY          YZ          ZX
  Alpha Z   113.16553   113.16553   113.16553
  Ewald   19150.79108 21142.20944 16413.82326    15.86507   502.30662   460.66257
  Hartree 29074.71250 30972.45451 26570.99980    17.98843   468.35298   423.60769
  E(xc)   -1652.03590 -1651.82153 -1652.34297    -0.01558     0.09091    -0.03326
  Local  -54029.50816-57924.78607-48809.68510   -33.79574  -971.16443  -885.19470
  n-local  -291.29193  -290.33831  -291.43126    -0.84307     0.73815    -0.02429
  augment  5282.44230  5286.44578  5295.24099     0.36643    -0.77806     0.81867
  Kinetic  2350.45316  2351.32959  2358.63327     0.46350     0.02375     0.11023
  Fock        0.00000     0.00000     0.00000     0.00000     0.00000     0.00000
  Total      -1.27143    -1.34106    -1.59648     0.02904    -0.43008    -0.05309
  in kB      -0.49733    -0.52456    -0.62447     0.01136    -0.16823    -0.02077

 VOLUME and BASIS-vectors are now :
  energy-cutoff  :      400.00
  volume of cell :     4096.00
      direct lattice vectors                 reciprocal lattice vectors
    16.000000000  0.000000000  0.000000000     0.062500000  0.000000000  0.000000000
     0.000000000 16.000000000  0.000000000     0.000000000  0.062500000  0.000000000
     0.000000000  0.000000000 16.000000000     0.000000000  0.000000000  0.062500000

  length of vectors
    16.000000000 16.000000000 16.000000000     0.062500000  0.062500000  0.062500000

 FORCES acting on ions
    electron-ion (+dipol)            ewald-force                    non-local-force                 convergence-correction
   0.166E+04 0.128E+02 0.493E+03   -.165E+04 -.129E+02 -.491E+03   -.584E+01 -.134E+00 -.202E+01   -.134E+00 0.232E+00 0.952E-01
   -.432E+02 0.887E+02 -.176E+04   0.421E+02 -.887E+02 0.175E+04   0.108E+01 -.979E-01 0.649E+01   -.437E-02 0.564E-01 0.251E-01
   -.497E+03 -.156E+04 0.594E+03   0.496E+03 0.156E+04 -.591E+03   0.119E+01 0.541E+01 -.343E+01   0.239E-01 -.319E-01 0.219E+00
   -.581E+03 0.149E+04 0.707E+03   0.579E+03 -.148E+04 -.704E+03   0.183E+01 -.504E+01 -.301E+01   -.391E-01 -.158E+00 0.940E-02
   0.125E+04 0.745E+02 -.129E+04   -.124E+04 -.738E+02 0.129E+04   -.476E+01 -.770E+00 0.390E+01   0.312E+00 0.293E-03 0.240E+00
   -.140E+04 -.101E+04 -.363E+03   0.140E+04 0.100E+04 0.362E+03   0.526E+01 0.227E+01 0.154E+01   -.139E+00 0.438E-01 0.215E+00
   -.144E+04 0.979E+03 -.328E+03   0.143E+04 -.977E+03 0.327E+03   0.485E+01 -.257E+01 0.112E+01   -.389E-01 0.726E-01 0.246E+00
   0.116E+04 -.105E+04 0.826E+03   -.116E+04 0.105E+04 -.824E+03   -.320E+01 0.359E+01 -.227E+01   -.760E-01 0.192E+00 0.101E+00
   0.113E+04 0.104E+04 0.875E+03   -.113E+04 -.104E+04 -.873E+03   -.297E+01 -.356E+01 -.266E+01   -.239E+00 0.559E-01 0.698E-01
   0.597E+03 -.466E+02 0.167E+04   -.594E+03 0.464E+02 -.166E+04   -.257E+01 -.442E-01 -.564E+01   -.166E+00 0.283E+00 -.714E-01
   -.296E+03 0.156E+04 -.684E+03   0.296E+03 -.156E+04 0.681E+03   0.687E+00 -.483E+01 0.210E+01   -.220E+00 0.298E-01 0.356E+00
   -.261E+03 -.151E+04 -.725E+03   0.260E+03 0.151E+04 0.725E+03   0.899E+00 0.227E+01 0.327E+00   0.852E-01 -.270E+00 0.583E-01
   -.134E+04 -.622E+03 0.966E+03   0.134E+04 0.619E+03 -.964E+03   0.324E+01 0.259E+01 -.304E+01   -.623E-02 0.307E+00 0.222E+00
   -.139E+04 0.490E+03 0.972E+03   0.139E+04 -.488E+03 -.968E+03   0.325E+01 -.221E+01 -.333E+01   0.101E+00 0.183E+00 -.526E-01
   0.609E+03 -.101E+04 -.123E+04   -.609E+03 0.101E+04 0.123E+04   -.107E+00 0.962E+00 0.239E+01   0.172E+00 -.270E+00 0.160E+00
   0.543E+03 0.119E+04 -.116E+04   -.542E+03 -.119E+04 0.116E+04   -.131E+01 -.197E+01 0.264E+01   0.216E-01 0.292E+00 0.382E+00
   0.412E+02 -.110E+04 0.133E+04   -.417E+02 0.110E+04 -.133E+04   0.624E+00 0.167E+01 -.226E+01   -.696E-01 0.259E+00 0.186E+00
   0.240E+02 0.103E+04 0.139E+04   -.246E+02 -.103E+04 -.139E+04   0.631E+00 -.134E+01 -.275E+01   -.372E-01 0.132E-01 -.675E-01
   0.610E+03 0.151E+04 0.748E+02   -.610E+03 -.151E+04 -.751E+02   -.209E+00 -.104E+01 -.170E+00   -.106E+00 -.850E-02 0.381E+00
   0.670E+03 -.147E+04 0.436E+01   -.669E+03 0.147E+04 -.539E+01   -.853E+00 0.128E+01 0.886E+00   0.574E-01 0.246E-01 0.148E+00
   0.146E+04 -.725E+03 -.430E+03   -.146E+04 0.723E+03 0.429E+03   -.178E+01 0.149E+01 0.304E+00   0.577E-01 0.677E-01 0.194E+00
   0.143E+04 0.810E+03 -.395E+03   -.143E+04 -.809E+03 0.394E+03   -.170E+01 -.115E+01 0.493E+00   -.275E-01 0.117E+00 0.382E+00
   -.575E+03 -.391E+02 0.154E+04   0.574E+03 0.391E+02 -.154E+04   0.506E+00 -.329E+00 -.769E+00   0.223E-01 0.320E+00 0.559E-01
   -.862E+03 -.491E+03 -.130E+04   0.862E+03 0.491E+03 0.130E+04   0.382E+00 0.428E+00 0.917E+00   -.210E+00 -.968E-02 0.260E+00
   -.862E+03 0.623E+03 -.128E+04   0.861E+03 -.622E+03 0.128E+04   0.774E+00 -.771E+00 0.123E+01   -.374E+00 0.392E+00 0.496E+00
   -.161E+04 -.166E+02 -.408E+03   0.161E+04 0.160E+02 0.407E+03   0.200E+01 0.149E+00 0.264E+00   -.201E+00 0.453E+00 0.351E+00
   0.271E+03 0.234E+02 -.635E+03   -.271E+03 -.230E+02 0.634E+03   -.327E+00 -.520E+00 0.302E+00   0.122E+00 0.123E+00 0.629E+00
   -.409E+03 -.579E+03 0.123E+03   0.409E+03 0.578E+03 -.123E+03   0.338E+00 0.221E+00 -.254E+00   0.697E-02 0.276E+00 0.427E+00
   -.432E+03 0.573E+03 0.175E+03   0.431E+03 -.573E+03 -.176E+03   0.345E+00 -.580E+00 0.121E+00   -.167E+00 0.305E+00 0.392E+00
   0.554E+03 0.279E+01 0.523E+03   -.554E+03 -.314E+01 -.523E+03   -.269E+00 -.285E-02 -.429E+00   -.619E-01 0.354E+00 0.310E+00
   -.605E+02 -.108E+03 -.164E+03   0.608E+02 0.109E+03 0.166E+03   -.238E+00 -.606E+00 -.165E+01   -.582E-02 -.411E-01 -.102E-01
   0.582E+02 -.160E+03 -.102E+03   -.591E+02 0.162E+03 0.102E+03   0.899E+00 -.134E+01 -.634E+00   0.648E-02 -.176E-01 0.510E-02
   -.130E+01 0.293E+01 0.283E+01   -.213E-12 0.568E-13 -.114E-12   0.265E+01 -.659E+01 -.931E+01   -.134E+01 0.364E+01 0.641E+01

 POSITION                                       TOTAL-FORCE (eV/Angst)
      4.11857      7.55486      6.18616         0.007147      0.002747      0.006864
      7.58229      7.42378     10.95389        -0.005072     -0.007814     -0.006759
      8.96549     10.99433      6.48439         0.014148     -0.000240     -0.009639
      9.10707      4.29834      6.20905         0.002523      0.001352     -0.006020
      5.38085      7.45897     10.08192        -0.006392     -0.009168      0.007544
     10.47461      9.98899      7.99204         0.017842     -0.005761      0.003823
     10.55542      5.26678      7.87534         0.009408     -0.005961      0.006791
      5.28708      9.45829      5.69056         0.000759      0.002260      0.023473
      5.33952      5.70885      5.60197         0.000582      0.003853      0.001703
      6.31212      7.66611      4.16884        -0.010645      0.016439      0.012136
      8.58398      4.20591      8.57813        -0.000379      0.002856     -0.009220
      8.44127     10.89070      8.86941         0.013410     -0.011150     -0.012852
     10.40270      8.93850      5.80933        -0.001041      0.002501      0.011423
     10.50265      6.49016      5.76867        -0.002626      0.002455      0.000758
      6.70788      9.51665      9.77917         0.021161     -0.014141      0.002013
      6.80878      5.48233      9.60303         0.001299     -0.012140      0.000565
      7.53363      9.63551      5.14604        -0.008713      0.009018      0.019174
      7.56231      5.61138      4.98037         0.002474      0.011048      0.001277
      6.86828      4.88548      7.19685        -0.002459     -0.003668     -0.005578
      6.76422     10.22972      7.36440        -0.007662      0.025239      0.009862
      5.10373      8.71560      8.04662         0.007358      0.003782      0.007227
      5.14569      6.31777      7.96663        -0.000374     -0.004435      0.002724
      8.63082      7.63537      4.91768        -0.005124      0.012899      0.010060
      9.13048      8.71448      9.60865         0.005911     -0.006794      0.005873
      9.12245      6.34266      9.48123         0.002453     -0.015455      0.013011
     10.53577      7.63097      7.92315        -0.002445     -0.008128      0.012046
      7.17892      7.53320      8.63440         0.004037     -0.012970     -0.001993
      8.57371      8.80427      7.19051        -0.006651      0.012252      0.014583
      8.61720      6.38125      7.08718         0.003905      0.001233      0.004275
      6.60464      7.57417      6.38195         0.000046     -0.000252      0.005320
      8.91429     10.19362     10.24448         0.018908      0.003934     -0.007601
      7.07014     11.13903      9.67004        -0.073787      0.004208     -0.122861
    total drift:                                0.010707     -0.023241     -0.061429

  FREE ENERGIE OF THE ION-ELECTRON SYSTEM (eV)
  free  energy   TOTEN  =      -136.03747127 eV

  energy  without entropy=     -136.03031023  energy(sigma->0) =     -136.03389075

 d Force = 0.3146721E-02[ 0.304E-02, 0.325E-02]  d Energy = 0.3250960E-02-0.104E-03
 d Force =-0.2167623E+01[-0.212E+01,-0.222E+01]  d Ewald  =-0.2167648E+01 0.254E-04

 stress matrix after NEB project (eV)
     -1.27143      0.02904     -0.05309
      0.02904     -1.34106     -0.43008
     -0.05309     -0.43008     -1.59648
  FORCES: max atom, RMS     0.143378    0.029711
  FORCE total and by dimension    0.168073    0.122861
  Stress total and by dimension    2.518129    1.596482
 Quasi-Newton relaxation of ions (Broydens 2nd method)
  g(Force)  = 0.136E-02   g(Stress)= 0.000E+00

 retain information from N=  4 steps
 eigenvalues of (default step * inverse Hessian matrix)
  average eigenvalue of G=   3.9743
 eigenvalue spectrum of G is  0.3262  5.4824  5.4824  4.6062